#######################################
### Exact MIP solver for the HHCRSP ###
#######################################
-- Instance file: new-instances/HHCRSP_300_60_90_0.8_R_C.txt
-- Max threads: 4
-- Time limit: 999999 seconds
-- Use initial solution: No
Trivial flow violations prevented generating 1165347 variables.
Version identifier: 20.1.0.0 | 2020-11-10 | 9bedb6d68
CPXPARAM_Threads                                 4
CPXPARAM_TimeLimit                               999999
Parallel mode: deterministic, using up to 4 threads for concurrent optimization:
 * Starting dual Simplex on 1 thread...
 * Starting Barrier on 3 threads...
Tried aggregator 1 time.
LP Presolve eliminated 45138 rows and 9837 columns.
Reduced LP has 1191848 rows, 1132128 columns, and 26587633 nonzeros.
Presolve time = 31.99 sec. (5853.14 ticks)
Symmetry aggregator did 1915201 additional substitutions.
Initializing dual steep norms . . .

Iteration log . . .
Iteration:     1   Dual objective     =             0.666667
Iteration:  1356   Dual objective     =           338.666667

Dual crossover.
  Dual:  Fixing 1625 variables.
     1624 DMoves:  Infeasibility  1.23245858e-12  Objective  3.39333333e+02
        0 DMoves:  Infeasibility  5.18057824e-13  Objective  3.39333333e+02
  Dual:  Pushed 41, exchanged 1584.
  Primal:  Fixing 1112 variables.
     1111 PMoves:  Infeasibility  3.33066907e-16  Objective  3.39333333e+02
        0 PMoves:  Infeasibility  3.33066907e-16  Objective  3.39333333e+02
  Primal:  Pushed 953, exchanged 159.

Dual simplex solved model.


Solution status from MIP model:
-- Processing time: 51.138 sec.
-- Memory used: 1090.63 MB
-- Best bound: inf
-- Obj value: 339.333
-- Gap: inf%
-- Total distance: 1018
-- Total tardiness: 0
-- Largest tardiness: 0
